CoO                                     
1.0
 +4.3139350000  +0.0000000000  +0.0000000000 
 +0.0000000000  +4.3139350000  +0.0000000000 
 +0.0000000000  +0.0000000000 +21.5696750000 
Co O
 8 8
Selective
Cartesian
 +4.3046300001  +4.3046300001  +0.0055712594  F F F
 +2.1824188411  +4.2970342799  +6.4182027237  T T T
 +4.3052300003  +2.1433299996  +2.1480299995  F F F
 +2.1447832906  +2.1684070726  +4.3039589286  T T T
 +4.2980157928  +4.3165560096  +4.2970558565  T T T
 +2.1337200002  +2.1337200002  +0.0124416991  F F F
 +2.1433299996  +4.3052300003  +2.1480299995  F F F
 +4.3082523612  +2.1593924935  +6.3759304389  T T T
 +4.2998000003  +2.1368400002  -0.0095639004  F F F
 +2.1368400002  +4.2998000003  -0.0095639004  F F F
 +2.1635900002  +2.1635900002  +2.1597600007  F F F
 +4.3009199996  +4.3009199996  +2.1458799990  F F F
 +4.3208120798  +2.1600859829  +4.3199882992  T T T
 +2.1477007469  +4.3213571360  +4.2565835134  T T T
 +2.1449254651  +2.1865551002  +6.4274604020  T T T
 +4.2769384294  +4.3164944885  +6.4256720953  T T T
